c Generated planar graph
p edge 309 492
e 1 266
e 2 3
e 2 45
e 3 132
e 3 166
e 3 188
e 3 213
e 4 71
e 4 93
e 4 295
e 5 133
e 5 305
e 6 37
e 6 65
e 6 155
e 6 170
e 6 176
e 6 192
e 6 202
e 6 243
e 6 274
e 7 105
e 7 228
e 7 269
e 7 279
e 8 141
e 8 200
e 9 131
e 9 167
e 9 202
e 10 61
e 10 79
e 11 135
e 11 185
e 11 252
e 12 56
e 12 65
e 12 137
e 12 142
e 12 167
e 12 208
e 13 82
e 13 273
e 13 278
e 14 109
e 14 176
e 14 246
e 15 56
e 15 167
e 15 208
e 16 40
e 16 46
e 16 81
e 16 87
e 16 114
e 16 153
e 17 128
e 17 180
e 18 76
e 19 138
e 19 259
e 20 23
e 20 29
e 20 68
e 21 22
e 21 35
e 21 83
e 21 157
e 22 92
e 22 96
e 23 128
e 23 133
e 23 149
e 23 219
e 23 253
e 23 289
e 23 305
e 24 54
e 24 141
e 25 124
e 25 262
e 26 59
e 26 91
e 26 161
e 26 171
e 27 267
e 28 130
e 28 199
e 28 282
e 29 82
e 29 233
e 30 48
e 30 66
e 30 101
e 31 88
e 31 282
e 32 76
e 32 121
e 32 134
e 32 185
e 32 307
e 33 268
e 33 300
e 34 68
e 34 82
e 34 128
e 35 107
e 35 136
e 35 186
e 36 89
e 36 107
e 36 186
e 37 287
e 38 122
e 38 220
e 39 128
e 39 133
e 39 162
e 40 87
e 40 109
e 40 216
e 40 274
e 41 121
e 42 141
e 42 164
e 42 195
e 43 292
e 44 100
e 44 300
e 45 244
e 46 86
e 46 123
e 46 211
e 47 52
e 47 60
e 47 146
e 47 217
e 47 266
e 47 282
e 48 59
e 48 120
e 48 157
e 48 258
e 49 214
e 50 178
e 50 179
e 51 69
e 51 183
e 51 187
e 52 146
e 52 215
e 52 269
e 52 293
e 53 60
e 53 184
e 53 271
e 54 67
e 54 141
e 54 195
e 55 69
e 55 295
e 57 204
e 57 241
e 57 282
e 57 285
e 58 65
e 58 158
e 59 90
e 59 110
e 60 75
e 60 282
e 61 118
e 61 126
e 61 206
e 61 222
e 61 239
e 62 88
e 62 212
e 62 241
e 62 257
e 62 302
e 63 115
e 64 111
e 64 231
e 64 301
e 65 103
e 65 147
e 65 235
e 66 135
e 66 258
e 66 280
e 67 125
e 67 188
e 69 215
e 69 234
e 69 248
e 70 108
e 70 152
e 70 155
e 70 177
e 70 213
e 70 284
e 71 156
e 71 215
e 71 224
e 71 253
e 71 297
e 71 304
e 72 201
e 72 247
e 73 180
e 73 194
e 73 245
e 73 247
e 73 253
e 73 273
e 74 113
e 74 121
e 74 197
e 74 244
e 76 121
e 77 139
e 77 291
e 78 100
e 79 220
e 80 254
e 80 296
e 81 93
e 81 107
e 81 117
e 81 201
e 82 245
e 82 273
e 83 179
e 83 297
e 84 90
e 84 91
e 84 205
e 85 276
e 85 281
e 86 109
e 86 153
e 86 200
e 86 309
e 87 214
e 88 151
e 88 221
e 89 143
e 89 183
e 89 275
e 90 161
e 90 181
e 91 205
e 92 115
e 92 148
e 92 186
e 92 251
e 93 97
e 93 253
e 93 295
e 94 101
e 94 110
e 94 173
e 94 223
e 95 117
e 95 201
e 95 264
e 96 179
e 96 291
e 97 238
e 98 137
e 98 218
e 99 269
e 99 277
e 99 293
e 100 107
e 100 258
e 101 223
e 101 294
e 102 188
e 102 225
e 103 147
e 104 160
e 104 198
e 105 116
e 105 271
e 105 277
e 105 279
e 105 286
e 106 219
e 107 157
e 107 242
e 107 268
e 107 300
e 110 144
e 110 181
e 111 157
e 111 174
e 112 121
e 112 134
e 113 220
e 113 222
e 114 153
e 115 139
e 115 291
e 116 255
e 116 282
e 117 227
e 118 167
e 118 206
e 118 307
e 119 166
e 119 244
e 120 288
e 122 239
e 124 173
e 124 261
e 125 159
e 125 164
e 125 306
e 126 163
e 127 155
e 127 170
e 128 305
e 129 182
e 129 302
e 130 255
e 131 226
e 132 160
e 132 258
e 132 309
e 134 185
e 135 197
e 135 223
e 135 236
e 136 157
e 137 158
e 137 218
e 137 243
e 138 192
e 140 182
e 140 257
e 141 164
e 141 176
e 142 272
e 143 191
e 143 242
e 143 275
e 144 173
e 144 227
e 145 291
e 146 156
e 146 215
e 146 224
e 147 208
e 147 235
e 148 250
e 149 233
e 150 151
e 150 212
e 150 221
e 150 285
e 151 292
e 154 190
e 154 265
e 154 286
e 154 293
e 155 222
e 156 217
e 157 174
e 157 203
e 157 258
e 161 201
e 162 219
e 163 167
e 163 222
e 165 175
e 165 284
e 165 303
e 166 222
e 167 196
e 167 216
e 168 278
e 168 296
e 169 261
e 171 297
e 172 287
e 172 290
e 172 303
e 173 214
e 173 262
e 174 256
e 174 297
e 175 284
e 175 290
e 176 246
e 176 287
e 177 306
e 178 207
e 178 302
e 179 189
e 179 291
e 181 227
e 181 264
e 182 250
e 182 302
e 184 282
e 185 252
e 185 307
e 187 204
e 187 241
e 187 251
e 187 263
e 187 282
e 188 309
e 189 217
e 189 297
e 190 266
e 190 293
e 191 234
e 191 275
e 191 295
e 192 193
e 192 226
e 194 247
e 194 305
e 196 272
e 197 198
e 197 280
e 199 248
e 200 225
e 201 297
e 201 299
e 202 274
e 203 298
e 206 239
e 207 237
e 208 222
e 209 292
e 210 282
e 210 285
e 211 268
e 214 252
e 215 228
e 217 302
e 217 304
e 217 308
e 218 226
e 219 267
e 220 222
e 221 229
e 223 261
e 226 243
e 229 282
e 230 231
e 230 288
e 231 276
e 231 281
e 231 297
e 232 283
e 233 254
e 234 275
e 236 262
e 237 302
e 237 308
e 238 247
e 240 249
e 240 273
e 240 278
e 246 274
e 247 253
e 247 297
e 248 255
e 248 263
e 248 282
e 249 253
e 251 270
e 256 298
e 258 280
e 260 276
e 265 283
e 265 293
e 266 286
e 268 309
e 269 279
e 276 288
e 278 296
e 283 293
e 284 287
e 284 303
e 287 306
e 289 297
